NAME: random_10_8
TYPE: TSP
COMMENT: random_10_8
DIMENSION: 10
EDGE_WEIGHT_TYPE: EUC_2D
NODE_COORD_SECTION
1 235 15
2 312 485
3 89 337
4 62 219
5 340 198
6 43 2
7 455 72
8 220 458
9 314 423
10 38 116
